100
1000
250
0 0
34 26
34 26
34 26
34 26
34 26
34 26
34 26
34 26
34 26
34 26
34 26
34 26
34 26
34 26
34 26
34 26
34 26
34 26
34 26
34 26
34 26
34 26
34 26
34 26
34 26
-28 20
-28 20
-28 20
-28 20
-28 20
-28 20
-28 20
-28 20
-28 20
-28 20
-28 20
-28 20
-28 20
-28 20
-28 20
-28 20
-28 20
-28 20
-28 20
-28 20
-28 20
-28 20
-28 20
-28 20
-28 20
-19 -37
-19 -37
-19 -37
-19 -37
-19 -37
-19 -37
-19 -37
-19 -37
-19 -37
-19 -37
-19 -37
-19 -37
-19 -37
-19 -37
-19 -37
-19 -37
-19 -37
-19 -37
-19 -37
-19 -37
-19 -37
-19 -37
-19 -37
-19 -37
-19 -37
-16 18
-16 18
-16 18
-16 18
-16 18
-16 18
-16 18
-16 18
-16 18
-16 18
-16 18
-16 18
-16 18
-16 18
-16 18
-16 18
-16 18
-16 18
-16 18
-16 18
-16 18
-16 18
-16 18
-16 18
-16 18
-19 24
-19 24
-19 24
-19 24
-19 24
-19 24
-19 24
-19 24
-19 24
-19 24
-19 24
-19 24
-19 24
-19 24
-19 24
-19 24
-19 24
-19 24
-19 24
-19 24
-19 24
-19 24
-19 24
-19 24
-19 24
32 -19
-32 23
-1 10
-19 4
-11 -34
33 -4
17 -17
-28 15
27 -8
-36 33
12 -33
-13 -40
-13 -25
34 -40
-31 -29
-10 -10
17 7
34 -26
-15 14
19 -4
25 26
4 18
32 26
-16 16
39 18
32 -19
-32 23
-1 10
-19 4
-11 -34
33 -4
17 -17
-28 15
27 -8
-36 33
12 -33
-13 -40
-13 -25
34 -40
-31 -29
-10 -10
17 7
34 -26
-15 14
19 -4
25 26
4 18
32 26
-16 16
39 18
32 -19
-32 23
-1 10
-19 4
-11 -34
33 -4
17 -17
-28 15
27 -8
-36 33
12 -33
-13 -40
-13 -25
34 -40
-31 -29
-10 -10
17 7
34 -26
-15 14
19 -4
25 26
4 18
32 26
-16 16
39 18
32 -19
-32 23
-1 10
-19 4
-11 -34
33 -4
17 -17
-28 15
27 -8
-36 33
12 -33
-13 -40
-13 -25
34 -40
-31 -29
-10 -10
17 7
34 -26
-15 14
19 -4
25 26
4 18
32 26
-16 16
39 18
32 -19
-32 23
-1 10
-19 4
-11 -34
33 -4
17 -17
-28 15
27 -8
-36 33
12 -33
-13 -40
-13 -25
34 -40
-31 -29
-10 -10
17 7
34 -26
-15 14
19 -4
25 26
4 18
32 26
-16 16
39 18
0 0 
54
54
54
52
56
56
57
60
57
54
53
59
54
54
57
56
59
56
54
55
57
55
57
57
55
53
56
52
57
59
52
57
53
52
55
54
55
55
55
60
55
57
56
57
53
55
59
57
52
55
56
54
56
51
57
56
55
52
57
60
53
55
51
54
56
59
56
59
52
59
59
53
60
60
55
60
60
60
55
59
59
56
57
59
54
55
54
56
56
52
60
56
54
53
55
54
53
56
56
56
56
54
57
54
60
59
56
56
51
59
56
59
52
54
57
55
54
59
53
51
56
54
59
55
54
54
54
54
52
56
56
57
60
57
54
53
59
54
54
57
56
59
56
54
55
57
55
57
57
55
53
56
52
57
59
52
57
53
52
55
54
55
55
55
60
55
57
56
57
53
55
59
57
52
55
56
54
56
51
57
56
55
52
57
60
53
55
51
54
56
59
56
59
52
59
59
53
60
60
55
60
60
60
55
59
59
56
57
59
54
55
54
56
56
52
60
56
54
53
55
54
53
56
56
56
56
54
57
54
60
59
56
56
51
59
56
59
52
54
57
55
54
59
53
51
56
54
59
55
54
